results/log/FMS_13_deadline_heurFalse.log

Gurobi 10.0.1 (win64) logging started Sun Oct  8 10:21:47 2023

Set parameter LogFile to value "./results//log/FMS_13_deadline_heurFalse.log"
Gurobi Optimizer version 10.0.1 build v10.0.1rc0 (win64)

CPU model: AMD Ryzen 7 3700X 8-Core Processor, instruction set [SSE2|AVX|AVX2]
Thread count: 8 physical cores, 16 logical processors, using up to 16 threads

Optimize a model with 513 rows, 437 columns and 2051 nonzeros
Model fingerprint: 0xfab8cf9d
Model has 1 quadratic constraint
Variable types: 0 continuous, 437 integer (388 binary)
Coefficient statistics:
  Matrix range     [1e+00, 1e+07]
  QMatrix range    [1e+00, 1e+00]
  QLMatrix range   [1e+00, 4e+02]
  Objective range  [1e+00, 1e+00]
  Bounds range     [1e+00, 1e+00]
  RHS range        [1e+00, 3e+07]
Presolve removed 70 rows and 219 columns
Presolve time: 0.01s
Presolved: 460 rows, 234 columns, 2044 nonzeros
Variable types: 0 continuous, 234 integer (169 binary)

Root relaxation: objective 0.000000e+00, 65 iterations, 0.00 seconds (0.00 work units)

    Nodes    |    Current Node    |     Objective Bounds      |     Work
 Expl Unexpl |  Obj  Depth IntInf | Incumbent    BestBd   Gap | It/Node Time

     0     0    0.00000    0   15          -    0.00000      -     -    0s
     0     0    0.00000    0   25          -    0.00000      -     -    0s
H    0     0                    12258.000000    0.00000   100%     -    0s
     0     0    0.00000    0   29 12258.0000    0.00000   100%     -    0s
H    0     0                    11220.000000    0.00000   100%     -    0s
H    0     0                    9697.0000000    0.00000   100%     -    0s
     0     0    0.00000    0   29 9697.00000    0.00000   100%     -    0s
H    0     0                    9695.0000000    0.00000   100%     -    0s
H    0     0                    8170.0000000    0.00000   100%     -    0s
     0     0    0.00000    0   31 8170.00000    0.00000   100%     -    0s
     0     0    0.00000    0   28 8170.00000    0.00000   100%     -    0s
H    0     0                    7539.0000000  307.96626  95.9%     -    0s
     0     0  307.96626    0   52 7539.00000  307.96626  95.9%     -    0s
     0     0 1810.80863    0   56 7539.00000 1810.80863  76.0%     -    0s
H    0     0                    7154.0000000 1811.77851  74.7%     -    0s
     0     0 1811.77851    0   53 7154.00000 1811.77851  74.7%     -    0s
     0     0 1992.78892    0   58 7154.00000 1992.78892  72.1%     -    0s
     0     0 1992.78892    0   58 7154.00000 1992.78892  72.1%     -    0s
     0     0 1995.17993    0   57 7154.00000 1995.17993  72.1%     -    0s
     0     0 1995.17993    0   56 7154.00000 1995.17993  72.1%     -    0s
     0     2 1995.17993    0   56 7154.00000 1995.17993  72.1%     -    0s
H   35    31                    6804.0000000 2005.43273  70.5%   9.3    0s
H   61    58                    6803.0000000 2005.43273  70.5%   8.6    0s
H   78    66                    6793.0000000 2005.43273  70.5%   9.2    0s
H  116    90                    6792.0000000 2005.43273  70.5%   9.5    0s
H  131    90                    6740.0000000 2005.43273  70.2%  10.2    0s
H  281   187                    6285.0000000 2005.43273  68.1%   8.5    0s
H  295   187                    5456.0000000 2005.43273  63.2%   8.3    0s
H 1202   668                    5372.0000000 2028.91243  62.2%   6.1    0s
H 1723   804                    5245.0000000 2141.00000  59.2%   5.7    1s
H 1733   769                    5244.0000000 2190.25884  58.2%   5.7    1s
H 1737   733                    5243.0000000 2218.82676  57.7%   5.7    2s
H 1741   698                    5242.0000000 2272.24713  56.7%   5.6    2s
H 1750   668                    5009.0000000 2311.02250  53.9%   5.6    2s
H 1755   637                    4793.0000000 2390.09173  50.1%   5.6    2s
H 1757   605                    4773.0000000 2413.23862  49.4%   5.6    2s
H 1764   581                    4772.0000000 2439.36611  48.9%  11.0    3s
H 1771   555                    4771.0000000 2439.36611  48.9%  11.0    3s
H 1778   532                    4696.0000000 2439.36611  48.1%  10.9    3s
  3802  1020 4286.00000   37   57 4696.00000 2439.36611  48.1%  15.7    5s
 16371  5872 2439.36611   37   70 4696.00000 2439.36611  48.1%  15.9   10s
H16387  5871                    4680.0000000 2439.36611  47.9%  15.9   10s
H16479  5788                    4435.0000000 2439.36611  45.0%  15.9   10s
 39976 14279 2709.29765   39   41 4435.00000 2439.36611  45.0%  16.5   15s
 53738 17832 3830.00000   45   44 4435.00000 2479.03805  44.1%  16.6   20s
 76762 23852 3898.66242   49   32 4435.00000 2637.06044  40.5%  17.3   25s
 100838 29814     cutoff   48      4435.00000 2699.71521  39.1%  17.1   30s
 117321 34203 3031.44508   44   55 4435.00000 2739.00000  38.2%  17.2   35s
 133935 37152 3661.00000   51   36 4435.00000 2776.00000  37.4%  17.1   40s
 145908 39259 infeasible   56      4435.00000 2805.00000  36.8%  17.2   45s
 160601 41695 infeasible   47      4435.00000 2838.93689  36.0%  17.3   50s
 175137 43799 3368.57565   45   51 4435.00000 2868.10358  35.3%  17.3   55s
 188382 45715 3552.00000   45   27 4435.00000 2895.42689  34.7%  17.2   60s
 201276 47346 infeasible   51      4435.00000 2922.18510  34.1%  17.3   65s
 212403 48673 3891.00000   46   30 4435.00000 2944.42395  33.6%  17.3   70s
 222583 49919 infeasible   53      4435.00000 2961.30381  33.2%  17.3   75s
 229246 50720 4388.19832   47   16 4435.00000 2971.83384  33.0%  17.4   80s
 237175 51899 3572.14472   47   51 4435.00000 2980.33568  32.8%  17.5   85s
*246453 52432              65    4367.0000000 2994.12545  31.4%  17.6   89s
 247295 52614 2996.00000   45   45 4367.00000 2996.00000  31.4%  17.6   90s
 256954 53467 infeasible   46      4367.00000 3011.00000  31.1%  17.7   95s
 265329 54160 3462.62805   51   57 4367.00000 3024.00000  30.8%  17.8  100s
 275259 54893 3161.00000   41   48 4367.00000 3040.00000  30.4%  17.9  105s
 283475 55502 infeasible   48      4367.00000 3051.56423  30.1%  18.0  110s
 291552 56050 infeasible   44      4367.00000 3062.00000  29.9%  18.1  115s
 300820 56657 infeasible   45      4367.00000 3075.01788  29.6%  18.1  120s
 307767 57003 3597.42695   41   58 4367.00000 3084.36413  29.4%  18.2  125s
 316507 57472 3544.68055   47   39 4367.00000 3096.06234  29.1%  18.3  130s
 324550 57835 3915.02328   40   56 4367.00000 3107.00000  28.9%  18.3  135s
 331064 58150 infeasible   47      4367.00000 3116.00000  28.6%  18.4  140s
 339816 58470 infeasible   41      4367.00000 3126.96695  28.4%  18.4  145s
 346128 58748 infeasible   47      4367.00000 3136.00000  28.2%  18.4  150s
 352980 58954 3546.56381   52   49 4367.00000 3145.19354  28.0%  18.5  155s
 360022 59137 3692.37468   46   34 4367.00000 3155.56442  27.7%  18.5  160s
 366605 59212 4219.24131   52   49 4367.00000 3163.46029  27.6%  18.6  165s
 373634 59211 3617.69385   44   45 4367.00000 3171.58963  27.4%  18.6  170s
 380383 59303 3356.96896   51   52 4367.00000 3182.76020  27.1%  18.6  175s
 386668 59355 3566.44792   45   66 4367.00000 3190.14031  26.9%  18.6  180s
 393301 59370 3496.00000   51   70 4367.00000 3199.00000  26.7%  18.6  185s
 400271 59435 3696.26034   52   53 4367.00000 3208.48770  26.5%  18.6  190s
 405445 59508 infeasible   40      4367.00000 3214.00000  26.4%  18.6  195s
 412086 59526 3645.03580   44   50 4367.00000 3224.02007  26.2%  18.6  200s
 419006 59545 3717.45787   39   61 4367.00000 3232.00000  26.0%  18.6  205s
 425908 59542 infeasible   50      4367.00000 3240.03144  25.8%  18.6  211s
 430764 59483 infeasible   38      4367.00000 3246.39743  25.7%  18.7  215s
 437168 59523 4256.11169   48   31 4367.00000 3255.00000  25.5%  18.7  220s
 444004 59464 infeasible   45      4367.00000 3263.00000  25.3%  18.7  226s
 448792 59433 3946.07709   43   47 4367.00000 3269.44271  25.1%  18.7  230s
 455696 59408 3842.36650   41   33 4367.00000 3279.00000  24.9%  18.7  237s
 457274 59384 infeasible   51      4367.00000 3281.00000  24.9%  18.7  240s
 462382 59291 3900.00000   41   45 4367.00000 3287.27232  24.7%  18.7  245s
 469376 59095 4003.09825   54   33 4367.00000 3296.15334  24.5%  18.7  251s
 473933 59000 4143.26653   54   22 4367.00000 3301.96773  24.4%  18.7  256s
 479443 58799 3635.26994   46   39 4367.00000 3309.00000  24.2%  18.7  261s
 484536 58625 4034.02461   51   27 4367.00000 3316.28567  24.1%  18.7  265s
 489920 58360 3702.43517   48   42 4367.00000 3323.00000  23.9%  18.7  270s
 495074 58241 4111.07897   45   41 4367.00000 3330.47000  23.7%  18.7  275s
 500415 58011 3621.07989   48   35 4367.00000 3337.35995  23.6%  18.7  280s
 507067 57710 infeasible   58      4367.00000 3347.20417  23.4%  18.7  286s
 512245 57455     cutoff   49      4367.00000 3355.00000  23.2%  18.7  291s
 517441 57241 infeasible   52      4367.00000 3362.00000  23.0%  18.7  296s
 522705 57040 infeasible   50      4367.00000 3369.00000  22.9%  18.7  301s
 527709 56797 3999.00000   46   32 4367.00000 3376.31514  22.7%  18.7  306s
 532595 56612 infeasible   49      4367.00000 3382.31597  22.5%  18.7  311s
 537624 56378 4039.85788   50   42 4367.00000 3389.00000  22.4%  18.7  316s
 543222 56117 3720.00000   53   26 4367.00000 3396.29133  22.2%  18.7  321s
 548292 55893 4084.45804   44   42 4367.00000 3403.69512  22.1%  18.7  326s
 553280 55608 4322.48958   46   57 4367.00000 3410.37191  21.9%  18.7  331s
 556639 55415 infeasible   44      4367.00000 3414.72972  21.8%  18.7  335s
 562050 55052 4342.20914   42   55 4367.00000 3422.16835  21.6%  18.7  340s
 567288 54683 3569.31092   49   55 4367.00000 3429.00000  21.5%  18.7  345s
 572563 54324 infeasible   51      4367.00000 3436.44701  21.3%  18.7  350s
 577538 54010 3762.00811   38   72 4367.00000 3443.00000  21.2%  18.7  356s
 582619 53678     cutoff   45      4367.00000 3450.00000  21.0%  18.7  361s
 587671 53342 infeasible   54      4367.00000 3457.10084  20.8%  18.6  366s
 591211 53085 infeasible   44      4367.00000 3463.00000  20.7%  18.6  370s
 596460 52733 4140.27744   50   35 4367.00000 3470.00000  20.5%  18.6  375s
 601724 52284 3803.77321   44   22 4367.00000 3477.00000  20.4%  18.6  381s
 606904 51870 infeasible   43      4367.00000 3484.82677  20.2%  18.6  386s
 610251 51621 3657.83983   44   17 4367.00000 3490.00000  20.1%  18.6  390s
 615439 51196 infeasible   61      4367.00000 3496.69136  19.9%  18.6  395s
 620579 50766 3513.85804   58   36 4367.00000 3504.31765  19.8%  18.6  401s
 624089 50403 3768.05244   51   38 4367.00000 3510.00000  19.6%  18.6  405s
 629238 49956 4091.33741   50   37 4367.00000 3517.91559  19.4%  18.6  410s
 634216 49476 4193.12653   50   45 4367.00000 3525.00000  19.3%  18.6  416s
 637722 49135 infeasible   42      4367.00000 3530.18944  19.2%  18.6  420s
 643147 48511     cutoff   47      4367.00000 3538.59548  19.0%  18.6  426s
 645300 48324 3774.41953   43   43 4367.00000 3541.78967  18.9%  18.6  430s
 648957 47981 infeasible   57      4367.00000 3547.00000  18.8%  18.6  435s
 654355 47404 4177.12175   57   39 4367.00000 3555.08597  18.6%  18.6  440s
 659384 46777 3880.10406   48   49 4367.00000 3563.06394  18.4%  18.6  446s
 661165 46568 4213.69766   52   11 4367.00000 3566.74342  18.3%  18.6  451s
 664941 46158 3908.69884   45   49 4367.00000 3572.44060  18.2%  18.6  455s
 670047 45487     cutoff   43      4367.00000 3581.40445  18.0%  18.6  461s
 673576 45031 3768.87343   47   46 4367.00000 3587.00000  17.9%  18.6  465s
 679028 44352 3794.12750   52   45 4367.00000 3597.00000  17.6%  18.6  471s
 684155 43659 4080.64329   49   22 4367.00000 3606.00000  17.4%  18.6  476s
 687643 43229 3654.04545   45   64 4367.00000 3612.07910  17.3%  18.6  480s
 692907 42568     cutoff   37      4367.00000 3622.23678  17.1%  18.6  486s
 696354 42071 3692.97744   46   56 4367.00000 3628.00000  16.9%  18.6  490s
 701600 41436 3751.77994   45   51 4367.00000 3637.90149  16.7%  18.6  497s
 704977 40985 4140.68304   41   34 4367.00000 3644.00000  16.6%  18.6  500s
 710123 40305 4362.28322   47   30 4367.00000 3653.12467  16.3%  18.6  506s
 713293 39771 3823.15536   45   50 4367.00000 3658.87203  16.2%  18.6  510s
 718433 38978 3992.73237   57   23 4367.00000 3669.15449  16.0%  18.6  517s
 721788 38427 4113.97157   44   50 4367.00000 3676.20687  15.8%  18.6  521s
 725425 37857 3884.00417   50   37 4367.00000 3683.43446  15.7%  18.6  525s
 730615 37057 infeasible   41      4367.00000 3695.00000  15.4%  18.6  531s
 734199 36510 4282.18417   43   17 4367.00000 3701.01279  15.3%  18.6  536s
 737491 35882 3737.00000   48   39 4367.00000 3709.69551  15.1%  18.6  540s
 742649 35035 infeasible   54      4367.00000 3720.47281  14.8%  18.6  546s
 745991 34463 infeasible   56      4367.00000 3728.00023  14.6%  18.6  550s
 749496 33814 infeasible   53      4367.00000 3735.12551  14.5%  18.6  555s
 754739 32865     cutoff   40      4367.00000 3747.00000  14.2%  18.6  561s
 758117 32210 4089.13172   49   40 4367.00000 3755.85487  14.0%  18.6  565s
 761769 31535 3845.15766   52   20 4367.00000 3765.00000  13.8%  18.6  570s
 766718 30641 4085.09116   45   36 4367.00000 3776.24407  13.5%  18.6  576s
 770186 30216 4321.44240   50   26 4367.00000 3783.56259  13.4%  18.6  581s
 772572 29442     cutoff   47      4367.00000 3789.59221  13.2%  18.6  586s
 776382 28715 3919.66068   54   32 4367.00000 3798.00000  13.0%  18.6  591s
 780190 28015 4026.97864   41   66 4367.00000 3808.00000  12.8%  18.6  595s
 783707 27219 3824.43340   51   43 4367.00000 3817.16010  12.6%  18.6  600s
 787218 26374 4327.79355   43   40 4367.00000 3826.30107  12.4%  18.6  605s
 792663 25187 infeasible   55      4367.00000 3842.34495  12.0%  18.6  611s
 796360 24384 infeasible   46      4367.00000 3853.00000  11.8%  18.6  616s
 799800 23545 infeasible   44      4367.00000 3863.43913  11.5%  18.6  621s
 803310 22643 3880.00000   51   41 4367.00000 3874.42100  11.3%  18.6  625s
 806743 21727 infeasible   56      4367.00000 3887.35592  11.0%  18.6  630s
 812129 20233 4138.55303   45   48 4367.00000 3907.42709  10.5%  18.6  637s
 815471 19188 infeasible   50      4367.00000 3921.00000  10.2%  18.6  641s
 818995 18114 4088.09671   44   51 4367.00000 3935.64752  9.88%  18.6  646s
 822733 17045 3960.00000   48   47 4367.00000 3953.01505  9.48%  18.6  651s
 826185 16004 infeasible   57      4367.00000 3970.00000  9.09%  18.6  656s
 829792 14994 4092.97398   44   39 4367.00000 3985.84989  8.73%  18.6  660s
 833036 13813 4138.30459   44   46 4367.00000 4002.00000  8.36%  18.6  665s
 836585 12610 4266.06240   51   31 4367.00000 4022.00000  7.90%  18.6  670s
 840106 11272 infeasible   46      4367.00000 4043.00000  7.42%  18.6  675s
 845545  9304 4210.71450   54   27 4367.00000 4077.60952  6.63%  18.6  682s
 849250  7976 4145.75389   56   28 4367.00000 4105.42566  5.99%  18.6  687s
 852654  6465 infeasible   42      4367.00000 4132.99868  5.36%  18.6  691s
 856128  4675 infeasible   48      4367.00000 4172.52219  4.45%  18.6  696s
 859776  2709     cutoff   51      4367.00000 4215.00000  3.48%  18.6  700s

Cutting planes:
  Learned: 217
  Gomory: 160
  Cover: 16
  Implied bound: 9
  Projected implied bound: 1
  MIR: 826
  StrongCG: 204
  Flow cover: 1864
  Inf proof: 84
  Zero half: 53
  RLT: 2
  Relax-and-lift: 14

Explored 865461 nodes (16071312 simplex iterations) in 703.75 seconds (188.41 work units)
Thread count was 16 (of 16 available processors)

Solution count 10: 4367 4435 4680 ... 5242

Optimal solution found (tolerance 1.00e-04)
Best objective 4.367000000000e+03, best bound 4.367000000000e+03, gap 0.0000%
Warning: constraint name "precedence between 0,0 to 0,1 if x_[0,0,0,1,3]=0, i.e. 0,1 before 0,0" has a space
Warning: constraint name "precedence between 0,0 to 0,1 if x_[0,0,0,1,3]=0, i.e. 0,1 before 0,0" has a space
Warning: default constraint names used to write mps file
